125 105 7039
42 28 28 31 69 35 47 78 33 77 35 55 72 37 48 51 58 44 41 59 25 47 56 29 78
41 65 63 38 24 35 55 22 30 47 41 34 66 64 26 21 40 22 61 36 30 23 65 64 58
283 256 221 704 648 298 442 640 534 406 469 186 291 665 399 456 201 424 414 629 362 376 414 693 456
368 303 255 819 713 267 391 590 685 430 571 233 359 632 365 517 219 448 378 816 456 460 512 779 483
